CMPL model generation - running

CMPL version: 1.11.0
Authors: Thomas Schleiff, Mike Steglich
Distributed under the GPLv3 

create model instance ...
write model instance ...
CMPL model generation - finished

Solver - running


Welcome to IBM(R) ILOG(R) CPLEX(R) Interactive Optimizer 12.7.1.0
  with Simplex, Mixed Integer & Barrier Optimizers
5725-A06 5725-A29 5724-Y48 5724-Y49 5724-Y54 5724-Y55 5655-Y21
Copyright IBM Corp. 1988, 2017.  All Rights Reserved.

Type 'help' for a list of available commands.
Type 'help' followed by a command name for more
information on commands.

CPLEX> Specified objective sense: MINIMIZE
Selected objective  name:  line[1]
Selected RHS        name:  RHS
Selected bound      name:  BOUND
Problem '/tmp/cmpl.T23986.mps' read.
Read time = 0.06 sec. (10.12 ticks)
CPLEX> CPXPARAM_Read_APIEncoding                        "UTF-8"
Tried aggregator 3 times.
MIP Presolve eliminated 24017 rows and 37612 columns.
MIP Presolve modified 425 coefficients.
Aggregator did 751 substitutions.
Reduced MIP has 3154 rows, 4092 columns, and 12108 nonzeros.
Reduced MIP has 3882 binaries, 0 generals, 0 SOSs, and 0 indicators.
Presolve time = 0.07 sec. (51.96 ticks)
Found incumbent of value 775.486922 after 0.11 sec. (79.54 ticks)
Probing fixed 10 vars, tightened 0 bounds.
Probing time = 0.02 sec. (5.30 ticks)
Tried aggregator 1 time.
MIP Presolve eliminated 0 rows and 10 columns.
MIP Presolve modified 52 coefficients.
Reduced MIP has 3154 rows, 4082 columns, and 12088 nonzeros.
Reduced MIP has 4082 binaries, 0 generals, 0 SOSs, and 0 indicators.
Presolve time = 0.02 sec. (10.20 ticks)
Probing time = 0.01 sec. (2.84 ticks)
Clique table members: 7349.
MIP emphasis: balance optimality and feasibility.
MIP search method: dynamic search.
Parallel mode: none, using 1 thread.
Root relaxation solution time = 0.01 sec. (5.90 ticks)

        Nodes                                         Cuts/
   Node  Left     Objective  IInf  Best Integer    Best Bound    ItCnt     Gap

*     0+    0                          775.4869      -26.1881           103.38%
      0     0      174.7240    12      775.4869      174.7240      168   77.47%
*     0+    0                          178.9721      174.7240             2.37%
*     0+    0                          174.9982      174.7240             0.16%
      0     0      174.9093     1      174.9982      Cuts: 33      183    0.05%
*     0+    0                          174.9268      174.9093             0.01%
      0     0        cutoff            174.9268                    183    0.00%
Elapsed time = 0.20 sec. (132.92 ticks, tree = 0.01 MB, solutions = 4)

GUB cover cuts applied:  1
Clique cuts applied:  3
Cover cuts applied:  19
Gomory fractional cuts applied:  10

Root node processing (before b&c):
  Real time             =    0.21 sec. (135.03 ticks)
Sequential b&c:
  Real time             =    0.00 sec. (0.00 ticks)
                          ------------
Total (root+branch&cut) =    0.21 sec. (135.03 ticks)

Solution pool: 4 solutions saved.

MIP - Integer optimal solution:  Objective =  1.7492683900e+02
Solution time =    0.21 sec.  Iterations = 183  Nodes = 0
Deterministic time = 135.15 ticks  (656.77 ticks/sec)

CPLEX> Incumbent solution written to file '/tmp/cmpl.T23986.gsol'.
CPLEX> 
CMPL: Time used for model generation: 0 seconds
CMPL: Time used for solving the model: 1 seconds


Solution written to ASCII file: results/output_generated_conf_0.4/2016-02-01-5/fair-nonlinear.sol

Solver - finished
